\ SCIP STATISTICS
\   Problem name     : SetCover-100-100
\   Variables        : 100 (100 binary, 0 integer, 0 implicit integer, 0 continuous)
\   Constraints      : 100
Minimize
 Obj: +88 x0 +60 x1 +20 x2 +19 x3 +74 x4 +49 x5 +37 x6 +72 x7 +99 x8 +79 x9 +38 x10 +31 x11 +44 x12 +50 x13
      +76 x14 +41 x15 +42 x16 +75 x17 +68 x18 +34 x19 +56 x20 +52 x21 +44 x22 +50 x23 +54 x24 +54 x25
      +27 x26 +64 x27 +55 x28 +49 x29 +64 x30 +98 x31 +40 x32 +31 x33 +14 x34 +63 x35 +11 x36 +25 x37
      +30 x38 +11 x39 +32 x40 +59 x41 +59 x42 +50 x43 +96 x44 +15 x45 +18 x46 +19 x47 +87 x48 +47 x49
      +5 x50 +96 x51 +56 x52 +50 x53 +89 x54 +7 x55 +53 x56 +96 x57 +71 x58 +1 x59 +68 x60 +58 x61 +97 x62
      +67 x63 +18 x64 +93 x65 +32 x66 +51 x67 +77 x68 +90 x69 +40 x70 +52 x71 +53 x72 +88 x73 +93 x74
      +7 x75 +24 x76 +32 x77 +70 x78 +22 x79 +17 x80 +76 x81 +72 x82 +58 x83 +79 x84 +73 x85 +74 x86 +83 x87
      +26 x88 +66 x89 +21 x90 +10 x91 +65 x92 +40 x93 +84 x94 +96 x95 +43 x96 +53 x97 +58 x98 +86 x99
Subject to
 c0: +1 x4 +1 x5 +1 x7 +1 x8 +1 x14 +1 x20 +1 x21 +1 x28 +1 x30 +1 x39 +1 x44 +1 x46 +1 x50 +1 x51 +1 x57
  +1 x64 +1 x75 +1 x84 +1 x91 +1 x92 +1 x94 +1 x98 >= +1
 c1: +1 x1 +1 x7 +1 x15 +1 x17 +1 x18 +1 x24 +1 x25 +1 x26 +1 x32 +1 x33 +1 x42 +1 x43 +1 x51 +1 x54 +1 x55
  +1 x67 +1 x70 +1 x71 +1 x72 +1 x73 +1 x78 +1 x81 +1 x86 +1 x90 >= +1
 c2: +1 x1 +1 x9 +1 x11 +1 x19 +1 x26 +1 x29 +1 x37 +1 x38 +1 x39 +1 x41 +1 x42 +1 x44 +1 x46 +1 x48 +1 x49
  +1 x64 +1 x70 +1 x78 +1 x81 +1 x99 >= +1
 c3: +1 x3 +1 x14 +1 x29 +1 x30 +1 x36 +1 x40 +1 x41 +1 x43 +1 x44 +1 x48 +1 x54 +1 x57 +1 x66 +1 x76
  +1 x82 +1 x85 +1 x88 +1 x89 >= +1
 c4: +1 x1 +1 x6 +1 x16 +1 x26 +1 x30 +1 x38 +1 x46 +1 x61 +1 x64 +1 x65 +1 x70 +1 x71 +1 x75 +1 x77 +1 x83
  +1 x84 +1 x86 +1 x93 >= +1
 c5: +1 x1 +1 x4 +1 x5 +1 x8 +1 x11 +1 x20 +1 x47 +1 x48 +1 x52 +1 x61 +1 x63 +1 x70 +1 x76 +1 x80 +1 x86
  +1 x97 >= +1
 c6: +1 x1 +1 x5 +1 x8 +1 x12 +1 x13 +1 x14 +1 x19 +1 x26 +1 x32 +1 x36 +1 x38 +1 x43 +1 x50 +1 x51 +1 x52
  +1 x56 +1 x59 +1 x63 +1 x65 +1 x68 +1 x73 +1 x78 +1 x81 +1 x93 +1 x95 >= +1
 c7: +1 x2 +1 x7 +1 x11 +1 x16 +1 x21 +1 x23 +1 x34 +1 x35 +1 x38 +1 x45 +1 x52 +1 x69 +1 x70 +1 x81 +1 x83
  +1 x88 +1 x91 +1 x93 +1 x96 +1 x97 +1 x99 >= +1
 c8: +1 x4 +1 x6 +1 x10 +1 x13 +1 x18 +1 x22 +1 x25 +1 x27 +1 x28 +1 x34 +1 x38 +1 x58 +1 x62 +1 x65 +1 x71
  +1 x72 +1 x76 +1 x77 +1 x87 +1 x99 >= +1
 c9: +1 x2 +1 x16 +1 x19 +1 x22 +1 x28 +1 x40 +1 x51 +1 x56 +1 x57 +1 x59 +1 x62 +1 x74 +1 x79 +1 x82
  +1 x83 +1 x87 +1 x89 +1 x93 +1 x95 +1 x97 +1 x98 >= +1
 c10: +1 x4 +1 x8 +1 x15 +1 x19 +1 x23 +1 x25 +1 x34 +1 x37 +1 x43 +1 x52 +1 x53 +1 x54 +1 x59 +1 x67
  +1 x71 +1 x73 +1 x75 +1 x78 +1 x79 +1 x80 +1 x82 +1 x85 +1 x89 +1 x94 +1 x95 +1 x96 >= +1
 c11: +1 x4 +1 x6 +1 x13 +1 x18 +1 x21 +1 x27 +1 x31 +1 x32 +1 x44 +1 x45 +1 x56 +1 x70 +1 x83 +1 x88
  +1 x92 +1 x93 +1 x97 >= +1
 c12: +1 x4 +1 x7 +1 x12 +1 x22 +1 x24 +1 x31 +1 x36 +1 x39 +1 x43 +1 x44 +1 x47 +1 x54 +1 x55 +1 x63
  +1 x68 +1 x73 +1 x84 +1 x85 +1 x88 +1 x97 >= +1
 c13: +1 x4 +1 x10 +1 x12 +1 x13 +1 x14 +1 x15 +1 x16 +1 x27 +1 x29 +1 x45 +1 x52 +1 x53 +1 x56 +1 x58
  +1 x66 +1 x71 +1 x75 +1 x83 +1 x86 +1 x89 +1 x90 +1 x92 +1 x97 >= +1
 c14: +1 x0 +1 x5 +1 x6 +1 x8 +1 x9 +1 x13 +1 x15 +1 x17 +1 x18 +1 x29 +1 x39 +1 x46 +1 x47 +1 x60 +1 x62
  +1 x68 +1 x69 +1 x76 +1 x77 +1 x82 +1 x87 +1 x88 +1 x92 >= +1
 c15: +1 x3 +1 x7 +1 x13 +1 x19 +1 x21 +1 x23 +1 x24 +1 x35 +1 x36 +1 x39 +1 x40 +1 x44 +1 x45 +1 x47
  +1 x62 +1 x65 +1 x66 +1 x70 +1 x71 +1 x82 +1 x92 +1 x94 +1 x99 >= +1
 c16: +1 x4 +1 x5 +1 x9 +1 x13 +1 x40 +1 x43 +1 x49 +1 x51 +1 x56 +1 x57 +1 x60 +1 x71 +1 x73 +1 x74 +1 x77
  +1 x83 +1 x86 +1 x87 +1 x92 +1 x99 >= +1
 c17: +1 x1 +1 x5 +1 x10 +1 x18 +1 x24 +1 x28 +1 x29 +1 x30 +1 x31 +1 x34 +1 x35 +1 x55 +1 x59 +1 x63
  +1 x72 +1 x73 +1 x77 +1 x78 +1 x84 +1 x85 +1 x91 +1 x96 +1 x99 >= +1
 c18: +1 x3 +1 x10 +1 x12 +1 x14 +1 x18 +1 x20 +1 x27 +1 x36 +1 x37 +1 x42 +1 x44 +1 x49 +1 x50 +1 x61
  +1 x70 +1 x83 +1 x86 +1 x88 +1 x91 +1 x93 +1 x97 +1 x98 >= +1
 c19: +1 x1 +1 x5 +1 x11 +1 x13 +1 x27 +1 x31 +1 x45 +1 x46 +1 x47 +1 x55 +1 x63 +1 x77 +1 x78 +1 x79
  +1 x81 +1 x84 +1 x86 +1 x96 +1 x98 >= +1
 c20: +1 x3 +1 x5 +1 x28 +1 x31 +1 x34 +1 x41 +1 x43 +1 x48 +1 x53 +1 x56 +1 x73 +1 x79 +1 x81 +1 x82
  +1 x85 +1 x90 +1 x91 >= +1
 c21: +1 x3 +1 x6 +1 x9 +1 x13 +1 x18 +1 x37 +1 x38 +1 x42 +1 x44 +1 x52 +1 x62 +1 x67 +1 x70 +1 x80 +1 x81
  +1 x85 +1 x86 +1 x91 +1 x96 >= +1
 c22: +1 x4 +1 x9 +1 x11 +1 x15 +1 x34 +1 x43 +1 x49 +1 x55 +1 x56 +1 x57 +1 x74 +1 x75 +1 x78 +1 x84
  +1 x92 +1 x95 +1 x99 >= +1
 c23: +1 x4 +1 x9 +1 x22 +1 x23 +1 x24 +1 x25 +1 x29 +1 x39 +1 x40 +1 x45 +1 x47 +1 x48 +1 x60 +1 x62
  +1 x70 +1 x71 +1 x75 +1 x77 +1 x78 +1 x82 +1 x97 >= +1
 c24: +1 x1 +1 x6 +1 x9 +1 x22 +1 x23 +1 x27 +1 x35 +1 x38 +1 x44 +1 x51 +1 x54 +1 x55 +1 x66 +1 x67 +1 x76
  +1 x84 +1 x87 +1 x88 +1 x90 +1 x92 >= +1
 c25: +1 x0 +1 x12 +1 x15 +1 x31 +1 x41 +1 x47 +1 x53 +1 x54 +1 x60 +1 x68 +1 x72 +1 x79 +1 x80 +1 x83
  +1 x84 +1 x87 +1 x91 +1 x94 >= +1
 c26: +1 x2 +1 x5 +1 x9 +1 x11 +1 x20 +1 x26 +1 x30 +1 x37 +1 x40 +1 x42 +1 x44 +1 x49 +1 x50 +1 x56 +1 x72
  +1 x73 +1 x78 +1 x79 +1 x83 +1 x85 +1 x87 +1 x92 >= +1
 c27: +1 x4 +1 x5 +1 x6 +1 x14 +1 x18 +1 x19 +1 x23 +1 x25 +1 x28 +1 x29 +1 x30 +1 x36 +1 x42 +1 x50 +1 x54
  +1 x56 +1 x68 +1 x75 +1 x78 +1 x86 +1 x89 +1 x93 +1 x95 >= +1
 c28: +1 x1 +1 x5 +1 x10 +1 x12 +1 x21 +1 x24 +1 x28 +1 x32 +1 x40 +1 x44 +1 x45 +1 x49 +1 x51 +1 x52
  +1 x54 +1 x56 +1 x59 +1 x62 +1 x66 +1 x69 +1 x77 +1 x78 +1 x81 +1 x83 +1 x88 +1 x90 +1 x93 +1 x94 +1 x96
  >= +1
 c29: +1 x2 +1 x6 +1 x7 +1 x12 +1 x15 +1 x19 +1 x21 +1 x30 +1 x33 +1 x39 +1 x44 +1 x49 +1 x50 +1 x51 +1 x52
  +1 x74 +1 x77 +1 x80 +1 x82 +1 x86 +1 x88 +1 x93 >= +1
 c30: +1 x4 +1 x10 +1 x19 +1 x22 +1 x24 +1 x28 +1 x32 +1 x37 +1 x39 +1 x41 +1 x44 +1 x47 +1 x54 +1 x63
  +1 x67 +1 x69 +1 x79 +1 x85 +1 x93 >= +1
 c31: +1 x0 +1 x6 +1 x10 +1 x12 +1 x15 +1 x17 +1 x23 +1 x29 +1 x33 +1 x46 +1 x58 +1 x61 +1 x62 +1 x72
  +1 x78 +1 x79 +1 x87 +1 x94 +1 x99 >= +1
 c32: +1 x0 +1 x9 +1 x12 +1 x19 +1 x21 +1 x24 +1 x26 +1 x27 +1 x29 +1 x30 +1 x33 +1 x47 +1 x52 +1 x55
  +1 x81 +1 x88 +1 x95 >= +1
 c33: +1 x3 +1 x5 +1 x20 +1 x26 +1 x27 +1 x34 +1 x35 +1 x36 +1 x39 +1 x40 +1 x46 +1 x47 +1 x50 +1 x52
  +1 x55 +1 x62 +1 x64 +1 x65 +1 x69 +1 x71 +1 x76 +1 x86 +1 x88 +1 x99 >= +1
 c34: +1 x4 +1 x6 +1 x11 +1 x25 +1 x26 +1 x30 +1 x31 +1 x45 +1 x66 +1 x77 +1 x82 +1 x83 +1 x90 +1 x94
  +1 x96 +1 x98 >= +1
 c35: +1 x1 +1 x5 +1 x8 +1 x12 +1 x18 +1 x27 +1 x45 +1 x48 +1 x50 +1 x51 +1 x60 +1 x74 +1 x77 +1 x82 +1 x84
  +1 x95 +1 x98 >= +1
 c36: +1 x0 +1 x5 +1 x8 +1 x12 +1 x22 +1 x23 +1 x29 +1 x37 +1 x44 +1 x51 +1 x56 +1 x60 +1 x70 +1 x75 +1 x77
  +1 x88 +1 x93 +1 x95 >= +1
 c37: +1 x4 +1 x5 +1 x8 +1 x16 +1 x17 +1 x34 +1 x38 +1 x39 +1 x40 +1 x45 +1 x50 +1 x60 +1 x62 +1 x63 +1 x64
  +1 x65 +1 x73 +1 x86 +1 x91 +1 x95 +1 x98 +1 x99 >= +1
 c38: +1 x0 +1 x12 +1 x19 +1 x45 +1 x53 +1 x55 +1 x58 +1 x59 +1 x60 +1 x66 +1 x68 +1 x69 +1 x70 +1 x71
  +1 x73 +1 x75 +1 x85 +1 x86 +1 x89 +1 x96 >= +1
 c39: +1 x1 +1 x7 +1 x10 +1 x14 +1 x16 +1 x22 +1 x32 +1 x35 +1 x42 +1 x46 +1 x47 +1 x49 +1 x51 +1 x55
  +1 x56 +1 x61 +1 x62 +1 x63 +1 x74 +1 x77 +1 x90 +1 x93 +1 x98 >= +1
 c40: +1 x0 +1 x7 +1 x16 +1 x21 +1 x34 +1 x37 +1 x44 +1 x46 +1 x49 +1 x56 +1 x57 +1 x59 +1 x63 +1 x69
  +1 x71 +1 x77 +1 x83 +1 x88 +1 x89 +1 x90 +1 x97 >= +1
 c41: +1 x3 +1 x6 +1 x7 +1 x12 +1 x13 +1 x17 +1 x29 +1 x39 +1 x40 +1 x42 +1 x44 +1 x53 +1 x56 +1 x57 +1 x61
  +1 x87 +1 x89 +1 x91 +1 x94 +1 x99 >= +1
 c42: +1 x2 +1 x6 +1 x10 +1 x15 +1 x18 +1 x28 +1 x29 +1 x34 +1 x44 +1 x54 +1 x57 +1 x61 +1 x63 +1 x68
  +1 x74 +1 x82 +1 x87 +1 x90 +1 x99 >= +1
 c43: +1 x1 +1 x14 +1 x15 +1 x18 +1 x32 +1 x40 +1 x46 +1 x51 +1 x52 +1 x72 +1 x73 +1 x80 +1 x87 +1 x88
  >= +1
 c44: +1 x3 +1 x8 +1 x15 +1 x17 +1 x18 +1 x22 +1 x25 +1 x26 +1 x28 +1 x32 +1 x44 +1 x49 +1 x50 +1 x55
  +1 x60 +1 x64 +1 x66 +1 x67 +1 x72 +1 x77 +1 x80 +1 x82 +1 x87 >= +1
 c45: +1 x1 +1 x7 +1 x8 +1 x19 +1 x21 +1 x28 +1 x32 +1 x39 +1 x43 +1 x46 +1 x48 +1 x51 +1 x54 +1 x55 +1 x57
  +1 x58 +1 x64 +1 x71 +1 x74 +1 x76 +1 x83 +1 x86 +1 x95 >= +1
 c46: +1 x1 +1 x5 +1 x6 +1 x10 +1 x15 +1 x17 +1 x20 +1 x30 +1 x37 +1 x51 +1 x53 +1 x62 +1 x63 +1 x65 +1 x71
  +1 x72 +1 x75 +1 x80 +1 x86 +1 x87 +1 x88 +1 x91 +1 x97 >= +1
 c47: +1 x0 +1 x8 +1 x14 +1 x18 +1 x19 +1 x20 +1 x23 +1 x26 +1 x29 +1 x30 +1 x33 +1 x36 +1 x39 +1 x42
  +1 x52 +1 x57 +1 x66 +1 x73 +1 x76 +1 x85 +1 x87 +1 x92 +1 x93 >= +1
 c48: +1 x1 +1 x10 +1 x22 +1 x23 +1 x29 +1 x44 +1 x54 +1 x60 +1 x64 +1 x76 +1 x81 +1 x83 +1 x90 +1 x92
  +1 x99 >= +1
 c49: +1 x4 +1 x9 +1 x10 +1 x16 +1 x22 +1 x25 +1 x27 +1 x34 +1 x35 +1 x45 +1 x46 +1 x48 +1 x53 +1 x59
  +1 x60 +1 x64 +1 x68 +1 x71 +1 x76 +1 x80 +1 x85 +1 x86 +1 x89 +1 x93 +1 x97 >= +1
 c50: +1 x0 +1 x8 +1 x9 +1 x13 +1 x14 +1 x16 +1 x37 +1 x44 +1 x57 +1 x67 +1 x72 +1 x89 +1 x90 +1 x99 >= +1
 c51: +1 x0 +1 x6 +1 x12 +1 x25 +1 x26 +1 x28 +1 x31 +1 x34 +1 x39 +1 x43 +1 x44 +1 x53 +1 x54 +1 x57
  +1 x65 +1 x69 +1 x72 +1 x75 +1 x76 +1 x80 +1 x83 +1 x86 +1 x95 +1 x98 >= +1
 c52: +1 x0 +1 x4 +1 x6 +1 x7 +1 x10 +1 x30 +1 x34 +1 x35 +1 x37 +1 x41 +1 x49 +1 x52 +1 x54 +1 x69 +1 x70
  +1 x72 +1 x76 +1 x79 +1 x90 +1 x91 +1 x99 >= +1
 c53: +1 x4 +1 x5 +1 x16 +1 x18 +1 x29 +1 x33 +1 x34 +1 x36 +1 x40 +1 x43 +1 x48 +1 x60 +1 x62 +1 x63
  +1 x64 +1 x67 +1 x71 +1 x73 +1 x75 +1 x81 +1 x93 +1 x96 +1 x97 >= +1
 c54: +1 x4 +1 x14 +1 x19 +1 x21 +1 x27 +1 x32 +1 x40 +1 x68 +1 x69 +1 x70 +1 x71 +1 x78 +1 x88 +1 x93
  >= +1
 c55: +1 x3 +1 x6 +1 x11 +1 x22 +1 x33 +1 x37 +1 x38 +1 x39 +1 x41 +1 x43 +1 x44 +1 x46 +1 x52 +1 x68
  +1 x71 +1 x73 +1 x77 +1 x79 +1 x88 +1 x95 >= +1
 c56: +1 x1 +1 x24 +1 x30 +1 x33 +1 x40 +1 x41 +1 x43 +1 x46 +1 x50 +1 x51 +1 x53 +1 x54 +1 x56 +1 x66
  +1 x73 +1 x84 +1 x92 >= +1
 c57: +1 x1 +1 x5 +1 x13 +1 x14 +1 x17 +1 x21 +1 x24 +1 x26 +1 x33 +1 x34 +1 x36 +1 x37 +1 x40 +1 x42
  +1 x44 +1 x55 +1 x57 +1 x62 +1 x64 +1 x68 +1 x70 +1 x73 +1 x81 +1 x83 +1 x84 +1 x95 >= +1
 c58: +1 x2 +1 x8 +1 x9 +1 x24 +1 x25 +1 x28 +1 x29 +1 x36 +1 x58 +1 x60 +1 x65 +1 x66 +1 x81 +1 x90 +1 x99
  >= +1
 c59: +1 x3 +1 x7 +1 x9 +1 x13 +1 x17 +1 x19 +1 x23 +1 x33 +1 x36 +1 x43 +1 x47 +1 x58 +1 x64 +1 x66 +1 x69
  +1 x70 +1 x72 +1 x74 +1 x75 +1 x76 +1 x86 +1 x91 >= +1
 c60: +1 x1 +1 x9 +1 x14 +1 x17 +1 x22 +1 x30 +1 x35 +1 x62 +1 x65 +1 x67 +1 x68 +1 x71 +1 x72 +1 x73
  +1 x76 +1 x80 +1 x82 +1 x84 +1 x95 >= +1
 c61: +1 x4 +1 x12 +1 x18 +1 x20 +1 x29 +1 x36 +1 x38 +1 x40 +1 x41 +1 x46 +1 x52 +1 x59 +1 x64 +1 x77
  +1 x78 +1 x80 +1 x90 +1 x95 +1 x98 >= +1
 c62: +1 x0 +1 x7 +1 x8 +1 x17 +1 x22 +1 x24 +1 x25 +1 x30 +1 x39 +1 x42 +1 x43 +1 x46 +1 x60 +1 x66 +1 x77
  +1 x80 +1 x84 +1 x86 +1 x91 +1 x95 +1 x96 +1 x97 >= +1
 c63: +1 x1 +1 x7 +1 x14 +1 x15 +1 x24 +1 x27 +1 x29 +1 x33 +1 x36 +1 x40 +1 x46 +1 x53 +1 x57 +1 x59
  +1 x62 +1 x64 +1 x66 +1 x70 +1 x74 +1 x76 +1 x78 +1 x82 +1 x87 +1 x97 >= +1
 c64: +1 x4 +1 x9 +1 x14 +1 x20 +1 x25 +1 x31 +1 x33 +1 x36 +1 x37 +1 x43 +1 x48 +1 x51 +1 x54 +1 x63
  +1 x66 +1 x71 +1 x91 +1 x93 >= +1
 c65: +1 x1 +1 x10 +1 x11 +1 x20 +1 x23 +1 x27 +1 x44 +1 x49 +1 x51 +1 x56 +1 x58 +1 x75 +1 x76 +1 x77
  +1 x78 +1 x81 +1 x85 +1 x86 +1 x89 +1 x98 >= +1
 c66: +1 x0 +1 x11 +1 x18 +1 x23 +1 x24 +1 x26 +1 x27 +1 x30 +1 x40 +1 x49 +1 x51 +1 x53 +1 x55 +1 x58
  +1 x64 +1 x65 +1 x67 +1 x74 +1 x85 +1 x86 >= +1
 c67: +1 x0 +1 x8 +1 x14 +1 x20 +1 x22 +1 x23 +1 x24 +1 x27 +1 x34 +1 x42 +1 x46 +1 x51 +1 x56 +1 x64
  +1 x67 +1 x72 +1 x78 +1 x83 +1 x96 >= +1
 c68: +1 x2 +1 x22 +1 x26 +1 x32 +1 x42 +1 x44 +1 x47 +1 x48 +1 x51 +1 x61 +1 x63 +1 x65 +1 x70 +1 x80
  +1 x86 +1 x93 +1 x98 >= +1
 c69: +1 x2 +1 x8 +1 x10 +1 x17 +1 x18 +1 x22 +1 x25 +1 x29 +1 x32 +1 x37 +1 x45 +1 x52 +1 x56 +1 x58
  +1 x61 +1 x62 +1 x66 +1 x83 +1 x87 +1 x88 +1 x89 +1 x92 >= +1
 c70: +1 x0 +1 x5 +1 x16 +1 x25 +1 x26 +1 x27 +1 x28 +1 x31 +1 x36 +1 x41 +1 x46 +1 x48 +1 x50 +1 x52
  +1 x65 +1 x68 +1 x69 +1 x79 +1 x80 +1 x90 >= +1
 c71: +1 x1 +1 x14 +1 x16 +1 x18 +1 x19 +1 x33 +1 x41 +1 x52 +1 x56 +1 x59 +1 x63 +1 x64 +1 x72 +1 x75
  +1 x77 +1 x93 +1 x99 >= +1
 c72: +1 x4 +1 x6 +1 x9 +1 x11 +1 x21 +1 x33 +1 x59 +1 x62 +1 x63 +1 x66 +1 x85 +1 x96 >= +1
 c73: +1 x2 +1 x5 +1 x12 +1 x15 +1 x18 +1 x32 +1 x35 +1 x41 +1 x42 +1 x43 +1 x45 +1 x48 +1 x58 +1 x65
  +1 x66 +1 x69 +1 x73 +1 x75 +1 x76 +1 x77 +1 x81 +1 x89 +1 x91 +1 x92 >= +1
 c74: +1 x2 +1 x5 +1 x7 +1 x8 +1 x11 +1 x16 +1 x19 +1 x27 +1 x40 +1 x57 +1 x63 +1 x70 +1 x72 +1 x76 +1 x79
  +1 x87 +1 x89 +1 x97 >= +1
 c75: +1 x4 +1 x5 +1 x6 +1 x12 +1 x15 +1 x17 +1 x20 +1 x25 +1 x30 +1 x33 +1 x38 +1 x40 +1 x43 +1 x49 +1 x58
  +1 x70 +1 x76 +1 x80 +1 x88 +1 x95 >= +1
 c76: +1 x2 +1 x6 +1 x13 +1 x14 +1 x20 +1 x24 +1 x27 +1 x28 +1 x36 +1 x44 +1 x56 +1 x59 +1 x61 +1 x70
  +1 x73 +1 x74 +1 x76 +1 x77 +1 x81 +1 x88 +1 x96 +1 x97 +1 x98 >= +1
 c77: +1 x2 +1 x15 +1 x20 +1 x23 +1 x26 +1 x27 +1 x28 +1 x40 +1 x41 +1 x51 +1 x52 +1 x53 +1 x54 +1 x55
  +1 x65 +1 x66 +1 x68 +1 x74 +1 x87 +1 x91 >= +1
 c78: +1 x1 +1 x7 +1 x15 +1 x18 +1 x19 +1 x23 +1 x24 +1 x40 +1 x42 +1 x46 +1 x54 +1 x58 +1 x64 +1 x67
  +1 x69 +1 x72 +1 x76 +1 x79 +1 x81 +1 x86 +1 x88 +1 x93 +1 x97 >= +1
 c79: +1 x1 +1 x6 +1 x7 +1 x12 +1 x21 +1 x22 +1 x23 +1 x30 +1 x37 +1 x38 +1 x48 +1 x55 +1 x56 +1 x59 +1 x64
  +1 x81 +1 x82 +1 x88 +1 x89 +1 x91 +1 x95 >= +1
 c80: +1 x1 +1 x8 +1 x21 +1 x25 +1 x26 +1 x29 +1 x36 +1 x38 +1 x57 +1 x58 +1 x63 +1 x64 +1 x66 +1 x74
  +1 x76 +1 x79 +1 x85 +1 x86 >= +1
 c81: +1 x2 +1 x11 +1 x14 +1 x20 +1 x21 +1 x22 +1 x25 +1 x31 +1 x38 +1 x42 +1 x49 +1 x51 +1 x62 +1 x68
  +1 x72 +1 x78 +1 x81 +1 x83 +1 x85 +1 x91 +1 x92 >= +1
 c82: +1 x3 +1 x5 +1 x8 +1 x11 +1 x17 +1 x18 +1 x27 +1 x35 +1 x37 +1 x43 +1 x49 +1 x56 +1 x65 +1 x68 +1 x70
  +1 x71 +1 x74 +1 x89 +1 x91 +1 x93 +1 x97 +1 x98 >= +1
 c83: +1 x3 +1 x7 +1 x10 +1 x12 +1 x15 +1 x19 +1 x23 +1 x26 +1 x32 +1 x34 +1 x46 +1 x48 +1 x54 +1 x73
  +1 x74 +1 x76 +1 x80 +1 x83 +1 x85 +1 x90 >= +1
 c84: +1 x2 +1 x6 +1 x12 +1 x22 +1 x23 +1 x30 +1 x32 +1 x37 +1 x38 +1 x40 +1 x43 +1 x44 +1 x45 +1 x49
  +1 x50 +1 x51 +1 x58 +1 x60 +1 x65 +1 x68 +1 x70 +1 x72 +1 x78 +1 x86 >= +1
 c85: +1 x3 +1 x6 +1 x10 +1 x14 +1 x19 +1 x22 +1 x23 +1 x25 +1 x26 +1 x38 +1 x40 +1 x45 +1 x57 +1 x68
  +1 x74 +1 x76 +1 x82 +1 x90 +1 x92 +1 x98 >= +1
 c86: +1 x3 +1 x9 +1 x10 +1 x11 +1 x14 +1 x15 +1 x38 +1 x40 +1 x42 +1 x46 +1 x58 +1 x67 +1 x79 +1 x93
  +1 x95 +1 x96 +1 x98 >= +1
 c87: +1 x1 +1 x5 +1 x8 +1 x9 +1 x12 +1 x16 +1 x21 +1 x32 +1 x36 +1 x40 +1 x46 +1 x55 +1 x59 +1 x72 +1 x73
  +1 x77 +1 x80 >= +1
 c88: +1 x2 +1 x7 +1 x10 +1 x14 +1 x21 +1 x30 +1 x40 +1 x42 +1 x46 +1 x50 +1 x53 +1 x61 +1 x77 +1 x81
  +1 x83 +1 x94 +1 x98 >= +1
 c89: +1 x4 +1 x10 +1 x11 +1 x13 +1 x22 +1 x25 +1 x33 +1 x48 +1 x51 +1 x52 +1 x54 +1 x55 +1 x59 +1 x64
  +1 x66 +1 x80 +1 x87 +1 x93 +1 x97 +1 x99 >= +1
 c90: +1 x0 +1 x6 +1 x7 +1 x12 +1 x13 +1 x15 +1 x28 +1 x29 +1 x30 +1 x32 +1 x35 +1 x36 +1 x60 +1 x76 +1 x87
  +1 x95 >= +1
 c91: +1 x4 +1 x5 +1 x13 +1 x16 +1 x25 +1 x26 +1 x31 +1 x39 +1 x40 +1 x42 +1 x66 +1 x70 +1 x86 +1 x90
  +1 x95 +1 x96 +1 x98 +1 x99 >= +1
 c92: +1 x0 +1 x7 +1 x10 +1 x19 +1 x22 +1 x27 +1 x35 +1 x41 +1 x49 +1 x51 +1 x57 +1 x60 +1 x61 +1 x62
  +1 x63 +1 x68 +1 x88 +1 x92 +1 x93 >= +1
 c93: +1 x4 +1 x18 +1 x21 +1 x32 +1 x55 +1 x56 +1 x58 +1 x63 +1 x66 +1 x70 +1 x74 +1 x96 >= +1
 c94: +1 x1 +1 x7 +1 x13 +1 x15 +1 x18 +1 x27 +1 x31 +1 x33 +1 x37 +1 x40 +1 x50 +1 x53 +1 x55 +1 x58
  +1 x60 +1 x82 +1 x91 +1 x93 >= +1
 c95: +1 x2 +1 x20 +1 x23 +1 x24 +1 x25 +1 x30 +1 x31 +1 x36 +1 x38 +1 x56 +1 x58 +1 x60 +1 x63 +1 x66
  +1 x68 +1 x72 +1 x73 +1 x83 +1 x86 +1 x98 >= +1
 c96: +1 x0 +1 x7 +1 x11 +1 x15 +1 x16 +1 x23 +1 x36 +1 x39 +1 x43 +1 x45 +1 x48 +1 x52 +1 x58 +1 x62
  +1 x65 +1 x78 +1 x84 +1 x85 +1 x86 +1 x92 +1 x94 +1 x95 +1 x96 >= +1
 c97: +1 x3 +1 x9 +1 x21 +1 x25 +1 x29 +1 x32 +1 x33 +1 x35 +1 x37 +1 x43 +1 x48 +1 x50 +1 x55 +1 x66
  +1 x68 +1 x69 +1 x76 +1 x78 +1 x80 +1 x85 +1 x88 +1 x91 >= +1
 c98: +1 x2 +1 x6 +1 x24 +1 x29 +1 x32 +1 x38 +1 x44 +1 x58 +1 x61 +1 x64 +1 x66 +1 x67 +1 x70 +1 x71
  +1 x73 +1 x77 +1 x80 +1 x82 +1 x84 >= +1
 c99: +1 x0 +1 x24 +1 x30 +1 x33 +1 x35 +1 x36 +1 x37 +1 x53 +1 x75 +1 x85 +1 x90 +1 x98 +1 x99 >= +1
Bounds
 0 <= x0 <= 1
 0 <= x1 <= 1
 0 <= x2 <= 1
 0 <= x3 <= 1
 0 <= x4 <= 1
 0 <= x5 <= 1
 0 <= x6 <= 1
 0 <= x7 <= 1
 0 <= x8 <= 1
 0 <= x9 <= 1
 0 <= x10 <= 1
 0 <= x11 <= 1
 0 <= x12 <= 1
 0 <= x13 <= 1
 0 <= x14 <= 1
 0 <= x15 <= 1
 0 <= x16 <= 1
 0 <= x17 <= 1
 0 <= x18 <= 1
 0 <= x19 <= 1
 0 <= x20 <= 1
 0 <= x21 <= 1
 0 <= x22 <= 1
 0 <= x23 <= 1
 0 <= x24 <= 1
 0 <= x25 <= 1
 0 <= x26 <= 1
 0 <= x27 <= 1
 0 <= x28 <= 1
 0 <= x29 <= 1
 0 <= x30 <= 1
 0 <= x31 <= 1
 0 <= x32 <= 1
 0 <= x33 <= 1
 0 <= x34 <= 1
 0 <= x35 <= 1
 0 <= x36 <= 1
 0 <= x37 <= 1
 0 <= x38 <= 1
 0 <= x39 <= 1
 0 <= x40 <= 1
 0 <= x41 <= 1
 0 <= x42 <= 1
 0 <= x43 <= 1
 0 <= x44 <= 1
 0 <= x45 <= 1
 0 <= x46 <= 1
 0 <= x47 <= 1
 0 <= x48 <= 1
 0 <= x49 <= 1
 0 <= x50 <= 1
 0 <= x51 <= 1
 0 <= x52 <= 1
 0 <= x53 <= 1
 0 <= x54 <= 1
 0 <= x55 <= 1
 0 <= x56 <= 1
 0 <= x57 <= 1
 0 <= x58 <= 1
 0 <= x59 <= 1
 0 <= x60 <= 1
 0 <= x61 <= 1
 0 <= x62 <= 1
 0 <= x63 <= 1
 0 <= x64 <= 1
 0 <= x65 <= 1
 0 <= x66 <= 1
 0 <= x67 <= 1
 0 <= x68 <= 1
 0 <= x69 <= 1
 0 <= x70 <= 1
 0 <= x71 <= 1
 0 <= x72 <= 1
 0 <= x73 <= 1
 0 <= x74 <= 1
 0 <= x75 <= 1
 0 <= x76 <= 1
 0 <= x77 <= 1
 0 <= x78 <= 1
 0 <= x79 <= 1
 0 <= x80 <= 1
 0 <= x81 <= 1
 0 <= x82 <= 1
 0 <= x83 <= 1
 0 <= x84 <= 1
 0 <= x85 <= 1
 0 <= x86 <= 1
 0 <= x87 <= 1
 0 <= x88 <= 1
 0 <= x89 <= 1
 0 <= x90 <= 1
 0 <= x91 <= 1
 0 <= x92 <= 1
 0 <= x93 <= 1
 0 <= x94 <= 1
 0 <= x95 <= 1
 0 <= x96 <= 1
 0 <= x97 <= 1
 0 <= x98 <= 1
 0 <= x99 <= 1
Binaries
 x0 x1 x2 x3 x4 x5 x6 x7 x8 x9 x10 x11 x12 x13 x14 x15 x16 x17 x18 x19 x20 x21 x22 x23 x24 x25 x26 x27
 x28 x29 x30 x31 x32 x33 x34 x35 x36 x37 x38 x39 x40 x41 x42 x43 x44 x45 x46 x47 x48 x49 x50 x51 x52 x53
 x54 x55 x56 x57 x58 x59 x60 x61 x62 x63 x64 x65 x66 x67 x68 x69 x70 x71 x72 x73 x74 x75 x76 x77 x78 x79
 x80 x81 x82 x83 x84 x85 x86 x87 x88 x89 x90 x91 x92 x93 x94 x95 x96 x97 x98 x99
End
